92 4
16 19 19 21
0 0 0 0 0 3 2 3 4
7 0 3 0 0 3 5 8 21
9 0 0 0 4 2 6 37
4 0 0 0 1 2 7 33
3 0 5 0 0 3 17 36 75
6 0 0 0 3 3 12 18 24
6 0 0 2 0 2 39 82
8 0 0 6 0 3 9 13 74
5 0 0 0 8 3 10 16 25
3 0 2 0 0 3 11 19 20
8 0 0 0 4 3 23 26 27
4 0 0 9 0 1 42
4 8 0 0 0 3 14 15 51
10 0 0 0 2 2 44 83
7 2 0 0 0 3 35 38 47
2 0 0 4 0 3 54 65 80
9 0 0 0 6 2 28 30
9 0 0 0 6 3 52 53 54
4 0 0 0 3 2 32 49
2 0 0 7 0 2 22 39
9 3 0 0 0 3 31 54 60
3 4 0 0 0 2 31 33
7 7 0 0 0 2 29 66
3 0 2 0 0 1 57
9 0 0 0 7 2 53 83
10 0 10 0 0 3 32 71 79
10 0 0 10 0 2 58 60
4 0 0 9 0 3 57 64 70
8 0 0 6 0 1 30
7 5 0 0 0 2 40 47
5 0 6 0 0 2 49 65
1 1 0 0 0 2 59 73
2 0 0 0 10 1 34
2 6 0 0 0 1 45
4 9 0 0 0 3 45 63 84
7 1 0 0 0 1 43
4 9 0 0 0 1 46
3 0 4 0 0 3 46 53 86
3 0 1 0 0 1 41
3 0 0 0 5 1 41
6 0 0 0 2 2 51 64
6 7 0 0 0 2 52 73
10 6 0 0 0 1 71
5 0 1 0 0 1 55
9 4 0 0 0 2 48 55
8 0 10 0 0 1 73
1 5 0 0 0 1 82
7 0 0 0 6 2 50 60
6 0 0 0 10 3 50 56 61
3 0 0 0 2 2 68 70
7 0 8 0 0 2 76 80
4 0 0 9 0 2 63 91
1 0 9 0 0 2 61 88
1 0 0 0 3 1 62
7 0 0 0 5 3 59 78 86
7 6 0 0 0 2 59 72
6 0 0 0 2 3 77 78 84
1 0 4 0 0 1 62
4 0 0 0 8 1 66
5 0 5 0 0 2 69 72
3 0 0 5 0 1 70
7 0 0 0 10 2 67 89
10 0 0 7 0 2 67 69
3 0 0 0 1 2 69 77
3 2 0 0 0 2 76 79
10 0 0 0 5 3 68 75 87
6 0 0 7 0 1 79
10 0 0 0 6 1 85
8 0 0 9 0 1 86
8 0 0 5 0 1 81
2 0 0 0 10 1 84
4 0 1 0 0 2 75 76
4 2 0 0 0 1 81
6 7 0 0 0 2 78 81
7 0 0 9 0 2 77 91
5 4 0 0 0 1 85
1 0 5 0 0 1 89
3 0 2 0 0 2 80 89
2 0 1 0 0 2 82 83
7 7 0 0 0 1 91
8 0 0 0 1 1 90
10 0 0 0 9 1 90
5 0 0 0 5 1 85
4 4 0 0 0 1 87
4 0 0 7 0 1 88
6 0 0 7 0 1 87
7 0 0 0 10 1 88
3 0 0 0 2 1 90
5 0 0 9 0 1 92
5 5 0 0 0 1 92
10 0 0 8 0 1 92
0 0 0 0 0 0 